c A SAT instance generated from a 3-CNF formula that had 15 clauses and 5 variables
p cnf 5 15
3 -2 -1 0
5 -1 -4 0
-1 -5 2 0
3 4 -5 0
2 5 -3 0
2 4 -1 0
-5 2 -3 0
1 2 5 0
4 -3 -5 0
5 -3 2 0
-2 4 3 0
3 -2 5 0
5 -2 -1 0
5 -4 1 0
-5 3 -4 0
